10
0 718 12 231 105 37 240 19 118 38
718 0 398 183 249 174 723 338 351 600
12 398 0 201 312 3 403 253 626 146
231 183 201 0 376 155 771 257 576 66
105 249 312 376 0 130 200 50 57 130
37 174 3 155 130 0 217 91 282 119
240 723 403 771 200 217 0 183 320 38
19 338 253 257 50 91 183 0 196 21
118 351 626 576 57 282 320 196 0 305
38 600 146 66 130 119 38 21 305 0